(set-logic UF)
(declare-sort Loc 0)
(declare-sort SetLoc 0)
(declare-sort FldBool 0)
(declare-sort FldLoc 0)
(declare-fun null$0 () Loc)
(declare-fun read$0 (FldLoc Loc) Loc)
(declare-fun ep$0 (FldLoc SetLoc Loc) Loc)
(declare-fun emptyset$0 () SetLoc)
(declare-fun setenum$0 (Loc) SetLoc)
(declare-fun union$0 (SetLoc SetLoc) SetLoc)
(declare-fun intersection$0 (SetLoc SetLoc) SetLoc)
(declare-fun setminus$0 (SetLoc SetLoc) SetLoc)
(declare-fun Btwn$0 (FldLoc Loc Loc Loc) Bool)
(declare-fun in$0 (Loc SetLoc) Bool)
(declare-fun Alloc$0 () SetLoc)
(declare-fun FP$0 () SetLoc)
(declare-fun FP_Caller$0 () SetLoc)
(declare-fun FP_Caller_2$0 () SetLoc)
(declare-fun X$0 () SetLoc)
(declare-fun lseg_set_X$0 (FldLoc Loc Loc) SetLoc)
(declare-fun lseg_set_domain$0 (FldLoc Loc Loc) SetLoc)
(declare-fun lseg_set_struct$0 (SetLoc FldLoc Loc Loc SetLoc) Bool)
(declare-fun next$0 () FldLoc)
(declare-fun root_x$0 () Loc)
(declare-fun sk_?X_2$0 () SetLoc)
(declare-fun sk_?X_3$0 () SetLoc)
(declare-fun sk_?X_4$0 () SetLoc)
(declare-fun sk_?X_5$0 () SetLoc)
(declare-fun x$0 () Loc)
(assert (not (= (forall ((x Loc) (y Loc)) (or (and (= x y) (in$0 x (setenum$0 y))) (and (not (= x y)) (not (in$0 x (setenum$0 y)))))) (and (forall ((BOUND_VARIABLE_557 Loc)) (in$0 BOUND_VARIABLE_557 (setenum$0 BOUND_VARIABLE_557))) (forall ((BOUND_VARIABLE_567 Loc) (BOUND_VARIABLE_569 Loc)) (or (and (= BOUND_VARIABLE_567 BOUND_VARIABLE_569) (in$0 BOUND_VARIABLE_567 (setenum$0 BOUND_VARIABLE_569))) (not (in$0 BOUND_VARIABLE_567 (setenum$0 BOUND_VARIABLE_569)))))))))
(assert (= (forall ((x Loc) (y Loc)) (or (and (= x y) (in$0 x (setenum$0 y))) (and (not (= x y)) (not (in$0 x (setenum$0 y)))))) (forall ((x Loc) (y Loc)) (and (or (and (= x y) (in$0 x (setenum$0 y))) (not (= x y))) (or (and (= x y) (in$0 x (setenum$0 y))) (not (in$0 x (setenum$0 y))))))))
(assert (= (forall ((x Loc) (y Loc)) (and (or (and (= x y) (in$0 x (setenum$0 y))) (not (= x y))) (or (and (= x y) (in$0 x (setenum$0 y))) (not (in$0 x (setenum$0 y)))))) (and (forall ((BOUND_VARIABLE_557 Loc)) (in$0 BOUND_VARIABLE_557 (setenum$0 BOUND_VARIABLE_557))) (forall ((BOUND_VARIABLE_567 Loc) (BOUND_VARIABLE_569 Loc)) (or (and (= BOUND_VARIABLE_567 BOUND_VARIABLE_569) (in$0 BOUND_VARIABLE_567 (setenum$0 BOUND_VARIABLE_569))) (not (in$0 BOUND_VARIABLE_567 (setenum$0 BOUND_VARIABLE_569))))))))
(check-sat)
(exit)
